
(set-option :produce-models true)
(set-option :inline-size-limit 10000)

(declare-const var0 String)

(push 1)
(assert (str.in.re var0 (re.* (re.range "\x01" "\xff"))))
(assert (str.in.re var0 (re.++ (re.*? re.allchar) (re.++ (re.++ ((_ re.capture 1) (re.union (re.union (re.union (re.union (re.union (re.union (re.union (re.union (re.union (re.union (re.union (re.union (re.++ (str.to.re "J") (re.++ (str.to.re "a") (re.++ (str.to.re "n") (re.opt (re.++ (str.to.re "u") (re.++ (str.to.re "a") (re.++ (str.to.re "r") (str.to.re "y")))))))) (re.++ (str.to.re "F") (re.++ (str.to.re "e") (re.++ (str.to.re "b") (re.opt (re.++ (str.to.re "r") (re.++ (str.to.re "u") (re.++ (str.to.re "a") (re.++ (str.to.re "r") (str.to.re "y")))))))))) (re.++ (str.to.re "M") (re.++ (str.to.re "a") (re.++ (str.to.re "r") (re.opt (re.++ (str.to.re "c") (str.to.re "h"))))))) (re.++ (str.to.re "A") (re.++ (str.to.re "p") (re.++ (str.to.re "r") (re.opt (re.++ (str.to.re "i") (str.to.re "l"))))))) (re.++ (str.to.re "M") (re.++ (str.to.re "a") (str.to.re "y")))) (re.++ (str.to.re "J") (re.++ (str.to.re "u") (re.++ (str.to.re "n") (re.opt (str.to.re "e")))))) (re.++ (str.to.re "J") (re.++ (str.to.re "u") (re.++ (str.to.re "l") (re.opt (str.to.re "y")))))) (re.++ (str.to.re "A") (re.++ (str.to.re "u") (re.++ (str.to.re "g") (re.opt (re.++ (str.to.re "u") (re.++ (str.to.re "s") (str.to.re "t")))))))) (re.++ (str.to.re "S") (re.++ (str.to.re "e") (re.++ (str.to.re "p") (re.opt (re.++ (str.to.re "t") (re.++ (str.to.re "e") (re.++ (str.to.re "m") (re.++ (str.to.re "b") (re.++ (str.to.re "e") (str.to.re "r"))))))))))) (re.++ (str.to.re "S") (re.++ (str.to.re "e") (re.++ (str.to.re "p") (str.to.re "t"))))) (re.++ (str.to.re "O") (re.++ (str.to.re "c") (re.++ (str.to.re "t") (re.opt (re.++ (str.to.re "o") (re.++ (str.to.re "b") (re.++ (str.to.re "e") (str.to.re "r"))))))))) (re.++ (str.to.re "N") (re.++ (str.to.re "o") (re.++ (str.to.re "v") (re.opt (re.++ (str.to.re "e") (re.++ (str.to.re "m") (re.++ (str.to.re "b") (re.++ (str.to.re "e") (str.to.re "r")))))))))) (re.++ (str.to.re "D") (re.++ (str.to.re "e") (re.++ (str.to.re "c") (re.opt (re.++ (str.to.re "e") (re.++ (str.to.re "m") (re.++ (str.to.re "b") (re.++ (str.to.re "e") (str.to.re "r"))))))))))) (re.++ ((_ re.capture 2) (re.+ (re.union (str.to.re " ") (re.union (str.to.re "\u{0b}") (re.union (str.to.re "\u{0a}") (re.union (str.to.re "\u{0d}") (re.union (str.to.re "\u{09}") (str.to.re "\u{0c}")))))))) ((_ re.loop 2 4) (re.range "0" "9")))) re.all))))	; match!==null
(assert (not (str.in.re ((_ str.extract 1) var0 (re.++ (re.*? re.allchar) (re.++ (re.++ ((_ re.capture 1) (re.union (re.union (re.union (re.union (re.union (re.union (re.union (re.union (re.union (re.union (re.union (re.union (re.++ (str.to.re "J") (re.++ (str.to.re "a") (re.++ (str.to.re "n") (re.opt (re.++ (str.to.re "u") (re.++ (str.to.re "a") (re.++ (str.to.re "r") (str.to.re "y")))))))) (re.++ (str.to.re "F") (re.++ (str.to.re "e") (re.++ (str.to.re "b") (re.opt (re.++ (str.to.re "r") (re.++ (str.to.re "u") (re.++ (str.to.re "a") (re.++ (str.to.re "r") (str.to.re "y")))))))))) (re.++ (str.to.re "M") (re.++ (str.to.re "a") (re.++ (str.to.re "r") (re.opt (re.++ (str.to.re "c") (str.to.re "h"))))))) (re.++ (str.to.re "A") (re.++ (str.to.re "p") (re.++ (str.to.re "r") (re.opt (re.++ (str.to.re "i") (str.to.re "l"))))))) (re.++ (str.to.re "M") (re.++ (str.to.re "a") (str.to.re "y")))) (re.++ (str.to.re "J") (re.++ (str.to.re "u") (re.++ (str.to.re "n") (re.opt (str.to.re "e")))))) (re.++ (str.to.re "J") (re.++ (str.to.re "u") (re.++ (str.to.re "l") (re.opt (str.to.re "y")))))) (re.++ (str.to.re "A") (re.++ (str.to.re "u") (re.++ (str.to.re "g") (re.opt (re.++ (str.to.re "u") (re.++ (str.to.re "s") (str.to.re "t")))))))) (re.++ (str.to.re "S") (re.++ (str.to.re "e") (re.++ (str.to.re "p") (re.opt (re.++ (str.to.re "t") (re.++ (str.to.re "e") (re.++ (str.to.re "m") (re.++ (str.to.re "b") (re.++ (str.to.re "e") (str.to.re "r"))))))))))) (re.++ (str.to.re "S") (re.++ (str.to.re "e") (re.++ (str.to.re "p") (str.to.re "t"))))) (re.++ (str.to.re "O") (re.++ (str.to.re "c") (re.++ (str.to.re "t") (re.opt (re.++ (str.to.re "o") (re.++ (str.to.re "b") (re.++ (str.to.re "e") (str.to.re "r"))))))))) (re.++ (str.to.re "N") (re.++ (str.to.re "o") (re.++ (str.to.re "v") (re.opt (re.++ (str.to.re "e") (re.++ (str.to.re "m") (re.++ (str.to.re "b") (re.++ (str.to.re "e") (str.to.re "r")))))))))) (re.++ (str.to.re "D") (re.++ (str.to.re "e") (re.++ (str.to.re "c") (re.opt (re.++ (str.to.re "e") (re.++ (str.to.re "m") (re.++ (str.to.re "b") (re.++ (str.to.re "e") (str.to.re "r"))))))))))) (re.++ ((_ re.capture 2) (re.+ (re.union (str.to.re " ") (re.union (str.to.re "\u{0b}") (re.union (str.to.re "\u{0a}") (re.union (str.to.re "\u{0d}") (re.union (str.to.re "\u{09}") (str.to.re "\u{0c}")))))))) ((_ re.loop 2 4) (re.range "0" "9")))) re.all))) (str.to.re "\x00"))))
;match[1]!==null
(assert (str.in.re ((_ str.extract 1) var0 (re.++ (re.*? re.allchar) (re.++ (re.++ ((_ re.capture 1) (re.union (re.union (re.union (re.union (re.union (re.union (re.union (re.union (re.union (re.union (re.union (re.union (re.++ (str.to.re "J") (re.++ (str.to.re "a") (re.++ (str.to.re "n") (re.opt (re.++ (str.to.re "u") (re.++ (str.to.re "a") (re.++ (str.to.re "r") (str.to.re "y")))))))) (re.++ (str.to.re "F") (re.++ (str.to.re "e") (re.++ (str.to.re "b") (re.opt (re.++ (str.to.re "r") (re.++ (str.to.re "u") (re.++ (str.to.re "a") (re.++ (str.to.re "r") (str.to.re "y")))))))))) (re.++ (str.to.re "M") (re.++ (str.to.re "a") (re.++ (str.to.re "r") (re.opt (re.++ (str.to.re "c") (str.to.re "h"))))))) (re.++ (str.to.re "A") (re.++ (str.to.re "p") (re.++ (str.to.re "r") (re.opt (re.++ (str.to.re "i") (str.to.re "l"))))))) (re.++ (str.to.re "M") (re.++ (str.to.re "a") (str.to.re "y")))) (re.++ (str.to.re "J") (re.++ (str.to.re "u") (re.++ (str.to.re "n") (re.opt (str.to.re "e")))))) (re.++ (str.to.re "J") (re.++ (str.to.re "u") (re.++ (str.to.re "l") (re.opt (str.to.re "y")))))) (re.++ (str.to.re "A") (re.++ (str.to.re "u") (re.++ (str.to.re "g") (re.opt (re.++ (str.to.re "u") (re.++ (str.to.re "s") (str.to.re "t")))))))) (re.++ (str.to.re "S") (re.++ (str.to.re "e") (re.++ (str.to.re "p") (re.opt (re.++ (str.to.re "t") (re.++ (str.to.re "e") (re.++ (str.to.re "m") (re.++ (str.to.re "b") (re.++ (str.to.re "e") (str.to.re "r"))))))))))) (re.++ (str.to.re "S") (re.++ (str.to.re "e") (re.++ (str.to.re "p") (str.to.re "t"))))) (re.++ (str.to.re "O") (re.++ (str.to.re "c") (re.++ (str.to.re "t") (re.opt (re.++ (str.to.re "o") (re.++ (str.to.re "b") (re.++ (str.to.re "e") (str.to.re "r"))))))))) (re.++ (str.to.re "N") (re.++ (str.to.re "o") (re.++ (str.to.re "v") (re.opt (re.++ (str.to.re "e") (re.++ (str.to.re "m") (re.++ (str.to.re "b") (re.++ (str.to.re "e") (str.to.re "r")))))))))) (re.++ (str.to.re "D") (re.++ (str.to.re "e") (re.++ (str.to.re "c") (re.opt (re.++ (str.to.re "e") (re.++ (str.to.re "m") (re.++ (str.to.re "b") (re.++ (str.to.re "e") (str.to.re "r"))))))))))) (re.++ ((_ re.capture 2) (re.+ (re.union (str.to.re " ") (re.union (str.to.re "\u{0b}") (re.union (str.to.re "\u{0a}") (re.union (str.to.re "\u{0d}") (re.union (str.to.re "\u{09}") (str.to.re "\u{0c}")))))))) ((_ re.loop 2 4) (re.range "0" "9")))) re.all))) (re.++ re.all(re.+ (re.range "a" "z")) re.all) ))
;/[a-z]+/.test(match[1]) == true
(check-sat)
(get-model)
(pop 1)
(push 1)
(assert (str.in.re var0 (re.* (re.range "\x01" "\xff"))))
(assert (str.in.re var0 (re.++ (re.*? re.allchar) (re.++ (re.++ ((_ re.capture 1) (re.union (re.union (re.union (re.union (re.union (re.union (re.union (re.union (re.union (re.union (re.union (re.union (re.++ (str.to.re "J") (re.++ (str.to.re "a") (re.++ (str.to.re "n") (re.opt (re.++ (str.to.re "u") (re.++ (str.to.re "a") (re.++ (str.to.re "r") (str.to.re "y")))))))) (re.++ (str.to.re "F") (re.++ (str.to.re "e") (re.++ (str.to.re "b") (re.opt (re.++ (str.to.re "r") (re.++ (str.to.re "u") (re.++ (str.to.re "a") (re.++ (str.to.re "r") (str.to.re "y")))))))))) (re.++ (str.to.re "M") (re.++ (str.to.re "a") (re.++ (str.to.re "r") (re.opt (re.++ (str.to.re "c") (str.to.re "h"))))))) (re.++ (str.to.re "A") (re.++ (str.to.re "p") (re.++ (str.to.re "r") (re.opt (re.++ (str.to.re "i") (str.to.re "l"))))))) (re.++ (str.to.re "M") (re.++ (str.to.re "a") (str.to.re "y")))) (re.++ (str.to.re "J") (re.++ (str.to.re "u") (re.++ (str.to.re "n") (re.opt (str.to.re "e")))))) (re.++ (str.to.re "J") (re.++ (str.to.re "u") (re.++ (str.to.re "l") (re.opt (str.to.re "y")))))) (re.++ (str.to.re "A") (re.++ (str.to.re "u") (re.++ (str.to.re "g") (re.opt (re.++ (str.to.re "u") (re.++ (str.to.re "s") (str.to.re "t")))))))) (re.++ (str.to.re "S") (re.++ (str.to.re "e") (re.++ (str.to.re "p") (re.opt (re.++ (str.to.re "t") (re.++ (str.to.re "e") (re.++ (str.to.re "m") (re.++ (str.to.re "b") (re.++ (str.to.re "e") (str.to.re "r"))))))))))) (re.++ (str.to.re "S") (re.++ (str.to.re "e") (re.++ (str.to.re "p") (str.to.re "t"))))) (re.++ (str.to.re "O") (re.++ (str.to.re "c") (re.++ (str.to.re "t") (re.opt (re.++ (str.to.re "o") (re.++ (str.to.re "b") (re.++ (str.to.re "e") (str.to.re "r"))))))))) (re.++ (str.to.re "N") (re.++ (str.to.re "o") (re.++ (str.to.re "v") (re.opt (re.++ (str.to.re "e") (re.++ (str.to.re "m") (re.++ (str.to.re "b") (re.++ (str.to.re "e") (str.to.re "r")))))))))) (re.++ (str.to.re "D") (re.++ (str.to.re "e") (re.++ (str.to.re "c") (re.opt (re.++ (str.to.re "e") (re.++ (str.to.re "m") (re.++ (str.to.re "b") (re.++ (str.to.re "e") (str.to.re "r"))))))))))) (re.++ ((_ re.capture 2) (re.+ (re.union (str.to.re " ") (re.union (str.to.re "\u{0b}") (re.union (str.to.re "\u{0a}") (re.union (str.to.re "\u{0d}") (re.union (str.to.re "\u{09}") (str.to.re "\u{0c}")))))))) ((_ re.loop 2 4) (re.range "0" "9")))) re.all))))	; match!==null
(assert (not (str.in.re ((_ str.extract 1) var0 (re.++ (re.*? re.allchar) (re.++ (re.++ ((_ re.capture 1) (re.union (re.union (re.union (re.union (re.union (re.union (re.union (re.union (re.union (re.union (re.union (re.union (re.++ (str.to.re "J") (re.++ (str.to.re "a") (re.++ (str.to.re "n") (re.opt (re.++ (str.to.re "u") (re.++ (str.to.re "a") (re.++ (str.to.re "r") (str.to.re "y")))))))) (re.++ (str.to.re "F") (re.++ (str.to.re "e") (re.++ (str.to.re "b") (re.opt (re.++ (str.to.re "r") (re.++ (str.to.re "u") (re.++ (str.to.re "a") (re.++ (str.to.re "r") (str.to.re "y")))))))))) (re.++ (str.to.re "M") (re.++ (str.to.re "a") (re.++ (str.to.re "r") (re.opt (re.++ (str.to.re "c") (str.to.re "h"))))))) (re.++ (str.to.re "A") (re.++ (str.to.re "p") (re.++ (str.to.re "r") (re.opt (re.++ (str.to.re "i") (str.to.re "l"))))))) (re.++ (str.to.re "M") (re.++ (str.to.re "a") (str.to.re "y")))) (re.++ (str.to.re "J") (re.++ (str.to.re "u") (re.++ (str.to.re "n") (re.opt (str.to.re "e")))))) (re.++ (str.to.re "J") (re.++ (str.to.re "u") (re.++ (str.to.re "l") (re.opt (str.to.re "y")))))) (re.++ (str.to.re "A") (re.++ (str.to.re "u") (re.++ (str.to.re "g") (re.opt (re.++ (str.to.re "u") (re.++ (str.to.re "s") (str.to.re "t")))))))) (re.++ (str.to.re "S") (re.++ (str.to.re "e") (re.++ (str.to.re "p") (re.opt (re.++ (str.to.re "t") (re.++ (str.to.re "e") (re.++ (str.to.re "m") (re.++ (str.to.re "b") (re.++ (str.to.re "e") (str.to.re "r"))))))))))) (re.++ (str.to.re "S") (re.++ (str.to.re "e") (re.++ (str.to.re "p") (str.to.re "t"))))) (re.++ (str.to.re "O") (re.++ (str.to.re "c") (re.++ (str.to.re "t") (re.opt (re.++ (str.to.re "o") (re.++ (str.to.re "b") (re.++ (str.to.re "e") (str.to.re "r"))))))))) (re.++ (str.to.re "N") (re.++ (str.to.re "o") (re.++ (str.to.re "v") (re.opt (re.++ (str.to.re "e") (re.++ (str.to.re "m") (re.++ (str.to.re "b") (re.++ (str.to.re "e") (str.to.re "r")))))))))) (re.++ (str.to.re "D") (re.++ (str.to.re "e") (re.++ (str.to.re "c") (re.opt (re.++ (str.to.re "e") (re.++ (str.to.re "m") (re.++ (str.to.re "b") (re.++ (str.to.re "e") (str.to.re "r"))))))))))) (re.++ ((_ re.capture 2) (re.+ (re.union (str.to.re " ") (re.union (str.to.re "\u{0b}") (re.union (str.to.re "\u{0a}") (re.union (str.to.re "\u{0d}") (re.union (str.to.re "\u{09}") (str.to.re "\u{0c}")))))))) ((_ re.loop 2 4) (re.range "0" "9")))) re.all))) (str.to.re "\x00"))))	
;match[1]!==null
(assert (not (str.in.re ((_ str.extract 1) var0 (re.++ (re.*? re.allchar) (re.++ (re.++ ((_ re.capture 1) (re.union (re.union (re.union (re.union (re.union (re.union (re.union (re.union (re.union (re.union (re.union (re.union (re.++ (str.to.re "J") (re.++ (str.to.re "a") (re.++ (str.to.re "n") (re.opt (re.++ (str.to.re "u") (re.++ (str.to.re "a") (re.++ (str.to.re "r") (str.to.re "y")))))))) (re.++ (str.to.re "F") (re.++ (str.to.re "e") (re.++ (str.to.re "b") (re.opt (re.++ (str.to.re "r") (re.++ (str.to.re "u") (re.++ (str.to.re "a") (re.++ (str.to.re "r") (str.to.re "y")))))))))) (re.++ (str.to.re "M") (re.++ (str.to.re "a") (re.++ (str.to.re "r") (re.opt (re.++ (str.to.re "c") (str.to.re "h"))))))) (re.++ (str.to.re "A") (re.++ (str.to.re "p") (re.++ (str.to.re "r") (re.opt (re.++ (str.to.re "i") (str.to.re "l"))))))) (re.++ (str.to.re "M") (re.++ (str.to.re "a") (str.to.re "y")))) (re.++ (str.to.re "J") (re.++ (str.to.re "u") (re.++ (str.to.re "n") (re.opt (str.to.re "e")))))) (re.++ (str.to.re "J") (re.++ (str.to.re "u") (re.++ (str.to.re "l") (re.opt (str.to.re "y")))))) (re.++ (str.to.re "A") (re.++ (str.to.re "u") (re.++ (str.to.re "g") (re.opt (re.++ (str.to.re "u") (re.++ (str.to.re "s") (str.to.re "t")))))))) (re.++ (str.to.re "S") (re.++ (str.to.re "e") (re.++ (str.to.re "p") (re.opt (re.++ (str.to.re "t") (re.++ (str.to.re "e") (re.++ (str.to.re "m") (re.++ (str.to.re "b") (re.++ (str.to.re "e") (str.to.re "r"))))))))))) (re.++ (str.to.re "S") (re.++ (str.to.re "e") (re.++ (str.to.re "p") (str.to.re "t"))))) (re.++ (str.to.re "O") (re.++ (str.to.re "c") (re.++ (str.to.re "t") (re.opt (re.++ (str.to.re "o") (re.++ (str.to.re "b") (re.++ (str.to.re "e") (str.to.re "r"))))))))) (re.++ (str.to.re "N") (re.++ (str.to.re "o") (re.++ (str.to.re "v") (re.opt (re.++ (str.to.re "e") (re.++ (str.to.re "m") (re.++ (str.to.re "b") (re.++ (str.to.re "e") (str.to.re "r")))))))))) (re.++ (str.to.re "D") (re.++ (str.to.re "e") (re.++ (str.to.re "c") (re.opt (re.++ (str.to.re "e") (re.++ (str.to.re "m") (re.++ (str.to.re "b") (re.++ (str.to.re "e") (str.to.re "r"))))))))))) (re.++ ((_ re.capture 2) (re.+ (re.union (str.to.re " ") (re.union (str.to.re "\u{0b}") (re.union (str.to.re "\u{0a}") (re.union (str.to.re "\u{0d}") (re.union (str.to.re "\u{09}") (str.to.re "\u{0c}")))))))) ((_ re.loop 2 4) (re.range "0" "9")))) re.all))) (re.++ re.all(re.+ (re.range "a" "z")) re.all) )))
;/[a-z]+/.test(match[1]) == false	
(check-sat)
(get-model)
(pop 1)
(push 1)
(assert (str.in.re var0 (re.* (re.range "\x01" "\xff"))))
(assert (str.in.re var0 (re.++ (re.*? re.allchar) (re.++ (re.++ ((_ re.capture 1) (re.union (re.union (re.union (re.union (re.union (re.union (re.union (re.union (re.union (re.union (re.union (re.union (re.++ (str.to.re "J") (re.++ (str.to.re "a") (re.++ (str.to.re "n") (re.opt (re.++ (str.to.re "u") (re.++ (str.to.re "a") (re.++ (str.to.re "r") (str.to.re "y")))))))) (re.++ (str.to.re "F") (re.++ (str.to.re "e") (re.++ (str.to.re "b") (re.opt (re.++ (str.to.re "r") (re.++ (str.to.re "u") (re.++ (str.to.re "a") (re.++ (str.to.re "r") (str.to.re "y")))))))))) (re.++ (str.to.re "M") (re.++ (str.to.re "a") (re.++ (str.to.re "r") (re.opt (re.++ (str.to.re "c") (str.to.re "h"))))))) (re.++ (str.to.re "A") (re.++ (str.to.re "p") (re.++ (str.to.re "r") (re.opt (re.++ (str.to.re "i") (str.to.re "l"))))))) (re.++ (str.to.re "M") (re.++ (str.to.re "a") (str.to.re "y")))) (re.++ (str.to.re "J") (re.++ (str.to.re "u") (re.++ (str.to.re "n") (re.opt (str.to.re "e")))))) (re.++ (str.to.re "J") (re.++ (str.to.re "u") (re.++ (str.to.re "l") (re.opt (str.to.re "y")))))) (re.++ (str.to.re "A") (re.++ (str.to.re "u") (re.++ (str.to.re "g") (re.opt (re.++ (str.to.re "u") (re.++ (str.to.re "s") (str.to.re "t")))))))) (re.++ (str.to.re "S") (re.++ (str.to.re "e") (re.++ (str.to.re "p") (re.opt (re.++ (str.to.re "t") (re.++ (str.to.re "e") (re.++ (str.to.re "m") (re.++ (str.to.re "b") (re.++ (str.to.re "e") (str.to.re "r"))))))))))) (re.++ (str.to.re "S") (re.++ (str.to.re "e") (re.++ (str.to.re "p") (str.to.re "t"))))) (re.++ (str.to.re "O") (re.++ (str.to.re "c") (re.++ (str.to.re "t") (re.opt (re.++ (str.to.re "o") (re.++ (str.to.re "b") (re.++ (str.to.re "e") (str.to.re "r"))))))))) (re.++ (str.to.re "N") (re.++ (str.to.re "o") (re.++ (str.to.re "v") (re.opt (re.++ (str.to.re "e") (re.++ (str.to.re "m") (re.++ (str.to.re "b") (re.++ (str.to.re "e") (str.to.re "r")))))))))) (re.++ (str.to.re "D") (re.++ (str.to.re "e") (re.++ (str.to.re "c") (re.opt (re.++ (str.to.re "e") (re.++ (str.to.re "m") (re.++ (str.to.re "b") (re.++ (str.to.re "e") (str.to.re "r"))))))))))) (re.++ ((_ re.capture 2) (re.+ (re.union (str.to.re " ") (re.union (str.to.re "\u{0b}") (re.union (str.to.re "\u{0a}") (re.union (str.to.re "\u{0d}") (re.union (str.to.re "\u{09}") (str.to.re "\u{0c}")))))))) ((_ re.loop 2 4) (re.range "0" "9")))) re.all))))	; match!==null
(assert (str.in.re ((_ str.extract 1) var0 (re.++ (re.*? re.allchar) (re.++ (re.++ ((_ re.capture 1) (re.union (re.union (re.union (re.union (re.union (re.union (re.union (re.union (re.union (re.union (re.union (re.union (re.++ (str.to.re "J") (re.++ (str.to.re "a") (re.++ (str.to.re "n") (re.opt (re.++ (str.to.re "u") (re.++ (str.to.re "a") (re.++ (str.to.re "r") (str.to.re "y")))))))) (re.++ (str.to.re "F") (re.++ (str.to.re "e") (re.++ (str.to.re "b") (re.opt (re.++ (str.to.re "r") (re.++ (str.to.re "u") (re.++ (str.to.re "a") (re.++ (str.to.re "r") (str.to.re "y")))))))))) (re.++ (str.to.re "M") (re.++ (str.to.re "a") (re.++ (str.to.re "r") (re.opt (re.++ (str.to.re "c") (str.to.re "h"))))))) (re.++ (str.to.re "A") (re.++ (str.to.re "p") (re.++ (str.to.re "r") (re.opt (re.++ (str.to.re "i") (str.to.re "l"))))))) (re.++ (str.to.re "M") (re.++ (str.to.re "a") (str.to.re "y")))) (re.++ (str.to.re "J") (re.++ (str.to.re "u") (re.++ (str.to.re "n") (re.opt (str.to.re "e")))))) (re.++ (str.to.re "J") (re.++ (str.to.re "u") (re.++ (str.to.re "l") (re.opt (str.to.re "y")))))) (re.++ (str.to.re "A") (re.++ (str.to.re "u") (re.++ (str.to.re "g") (re.opt (re.++ (str.to.re "u") (re.++ (str.to.re "s") (str.to.re "t")))))))) (re.++ (str.to.re "S") (re.++ (str.to.re "e") (re.++ (str.to.re "p") (re.opt (re.++ (str.to.re "t") (re.++ (str.to.re "e") (re.++ (str.to.re "m") (re.++ (str.to.re "b") (re.++ (str.to.re "e") (str.to.re "r"))))))))))) (re.++ (str.to.re "S") (re.++ (str.to.re "e") (re.++ (str.to.re "p") (str.to.re "t"))))) (re.++ (str.to.re "O") (re.++ (str.to.re "c") (re.++ (str.to.re "t") (re.opt (re.++ (str.to.re "o") (re.++ (str.to.re "b") (re.++ (str.to.re "e") (str.to.re "r"))))))))) (re.++ (str.to.re "N") (re.++ (str.to.re "o") (re.++ (str.to.re "v") (re.opt (re.++ (str.to.re "e") (re.++ (str.to.re "m") (re.++ (str.to.re "b") (re.++ (str.to.re "e") (str.to.re "r")))))))))) (re.++ (str.to.re "D") (re.++ (str.to.re "e") (re.++ (str.to.re "c") (re.opt (re.++ (str.to.re "e") (re.++ (str.to.re "m") (re.++ (str.to.re "b") (re.++ (str.to.re "e") (str.to.re "r"))))))))))) (re.++ ((_ re.capture 2) (re.+ (re.union (str.to.re " ") (re.union (str.to.re "\u{0b}") (re.union (str.to.re "\u{0a}") (re.union (str.to.re "\u{0d}") (re.union (str.to.re "\u{09}") (str.to.re "\u{0c}")))))))) ((_ re.loop 2 4) (re.range "0" "9")))) re.all))) (str.to.re "\x00")))
;match[1]==null
(check-sat)
(get-model)
(pop 1)
(push 1)
(assert (str.in.re var0 (re.* (re.range "\x01" "\xff"))))
(assert (not (str.in.re var0 (re.++ (re.*? re.allchar) (re.++ (re.++ ((_ re.capture 1) (re.union (re.union (re.union (re.union (re.union (re.union (re.union (re.union (re.union (re.union (re.union (re.union (re.++ (str.to.re "J") (re.++ (str.to.re "a") (re.++ (str.to.re "n") (re.opt (re.++ (str.to.re "u") (re.++ (str.to.re "a") (re.++ (str.to.re "r") (str.to.re "y")))))))) (re.++ (str.to.re "F") (re.++ (str.to.re "e") (re.++ (str.to.re "b") (re.opt (re.++ (str.to.re "r") (re.++ (str.to.re "u") (re.++ (str.to.re "a") (re.++ (str.to.re "r") (str.to.re "y")))))))))) (re.++ (str.to.re "M") (re.++ (str.to.re "a") (re.++ (str.to.re "r") (re.opt (re.++ (str.to.re "c") (str.to.re "h"))))))) (re.++ (str.to.re "A") (re.++ (str.to.re "p") (re.++ (str.to.re "r") (re.opt (re.++ (str.to.re "i") (str.to.re "l"))))))) (re.++ (str.to.re "M") (re.++ (str.to.re "a") (str.to.re "y")))) (re.++ (str.to.re "J") (re.++ (str.to.re "u") (re.++ (str.to.re "n") (re.opt (str.to.re "e")))))) (re.++ (str.to.re "J") (re.++ (str.to.re "u") (re.++ (str.to.re "l") (re.opt (str.to.re "y")))))) (re.++ (str.to.re "A") (re.++ (str.to.re "u") (re.++ (str.to.re "g") (re.opt (re.++ (str.to.re "u") (re.++ (str.to.re "s") (str.to.re "t")))))))) (re.++ (str.to.re "S") (re.++ (str.to.re "e") (re.++ (str.to.re "p") (re.opt (re.++ (str.to.re "t") (re.++ (str.to.re "e") (re.++ (str.to.re "m") (re.++ (str.to.re "b") (re.++ (str.to.re "e") (str.to.re "r"))))))))))) (re.++ (str.to.re "S") (re.++ (str.to.re "e") (re.++ (str.to.re "p") (str.to.re "t"))))) (re.++ (str.to.re "O") (re.++ (str.to.re "c") (re.++ (str.to.re "t") (re.opt (re.++ (str.to.re "o") (re.++ (str.to.re "b") (re.++ (str.to.re "e") (str.to.re "r"))))))))) (re.++ (str.to.re "N") (re.++ (str.to.re "o") (re.++ (str.to.re "v") (re.opt (re.++ (str.to.re "e") (re.++ (str.to.re "m") (re.++ (str.to.re "b") (re.++ (str.to.re "e") (str.to.re "r")))))))))) (re.++ (str.to.re "D") (re.++ (str.to.re "e") (re.++ (str.to.re "c") (re.opt (re.++ (str.to.re "e") (re.++ (str.to.re "m") (re.++ (str.to.re "b") (re.++ (str.to.re "e") (str.to.re "r"))))))))))) (re.++ ((_ re.capture 2) (re.+ (re.union (str.to.re " ") (re.union (str.to.re "\u{0b}") (re.union (str.to.re "\u{0a}") (re.union (str.to.re "\u{0d}") (re.union (str.to.re "\u{09}") (str.to.re "\u{0c}")))))))) ((_ re.loop 2 4) (re.range "0" "9")))) re.all)))))	; match == null
(check-sat)
(get-model)
(pop 1)
(exit)
